sat
(:max-memory         18.02
 :memory             17.92
 :nlsat-propagations 7
 :nlsat-stages       4
 :num-allocs         5327
 :rlimit-count       1053
 :time               0.00
 :total-time         0.01)
